405 362
137 204 260 205 252 110 162 106 123 229 83 192 257 257 259 213 217 131 114 196 103 186 190 233 115 159 253 133 213 103 121 214 204 109 118 118 102 152 226 114 179 88 254 135 164 162 216 175 185 257
230 98 122 168 77 132 217 164 75 202 228 153 222 151 220 141 170 158 150 179 200 234 176 163 106 200 185 204 201 212 189 160 200 91 95 110 184 100 116 134 89 87 137 154 229 123 200 176 182 207
273 550 702 337 542 213 346 552 731 616 442 609 404 840 899 792 973 698 441 700 728 205 444 668 205 779 160 683 739 841 372 326 505 476 978 461 751 680 898 389 365 217 311 978 240 764 544 722 606 940